% demand
num_movements = 30;
loading_factor = [900, 1050, 950, 1250, 1850, 1850, 1500, 1150, 1050, 1900, 1050, 1200, 1250, 1200, 1150, 950, 950, 1500, 1950, 1050, 950, 1750, 1500, 1100, 1200, 850, 1350, 1000, 1850, 1200];
pickup_time = [0, 0, 0, 0, 0, 1, 1, 2, 2, 3, 3, 6, 6, 7, 7, 7, 7, 7, 8, 8, 9, 10, 11, 11, 11, 11, 11, 11, 12, 12];
delivery_time = [1, 1, 1, 1, 1, 6, 3, 6, 6, 7, 6, 7, 8, 11, 8, 8, 8, 8, 9, 11, 11, 11, 14, 12, 13, 13, 12, 12, 14, 13];

% transporter definition
total_capacity = 7000;
num_decks = 3;
capacity = [3000, 1000, 3000];

% ways out of decks
num_ways_out = 1;
paths_out = array3d(decks, ways_out, decks, [
% ways out of deck d1
2, 3, 0, 

% ways out of deck d2
3, 0, 0, 

% ways out of deck d3
0, 0, 0,	

]);

